16528
1 0 1 0 0 1 1 0 1 0 0 1 0 0 1 1 0 1 0 0 1 0 0 0 1 0 0 0 0 0 
6 0 6 2 6 5 2 24 14 11 5 20 20 20 2 14 11 17 5 11 2 17 5 2 5 20 2 24 5 5 5 0 6 24 20 20 24 15 2 14 0 14 15 2 24 14 2 20 0 8 5 2 14 11 6 20 11 5 17 8 0 24 8 0 0 0 5 0 5 5 6 6 11 17 15 20 5 20 2 5 20 17 6 11 2 17 17 17 20 24 2 15 17 0 17 15 14 6 24 6 6 17 11 0 14 11 17 0 14 14 14 14 11 0 11 15 24 15 24 24 11 6 0 20 6 17 24 15 17 14 0 0 24 6 20 8 17 24 20 17 0 8 8 14 8 0 11 11 11 24 